WARNING: for repeatability, setting FPU to use double precision
============================[ Problem Statistics ]=============================
|                                                                             |
|  Number of variables:           100                                         |
|  Number of clauses:             449                                         |
|  Parse time:                   0.00 s                                       |
|  Eliminated clauses:           0.00 Mb                                      |
|  Simplification time:          0.00 s                                       |
|                                                                             |
============================[ Search Statistics ]==============================
| Conflicts |          ORIGINAL         |          LEARNT          | Progress |
|           |    Vars  Clauses Literals |    Limit  Clauses Lit/Cl |          |
===============================================================================
|       100 |      97      446     1366 |      163      100      6 |  0.020 % |
|       250 |      95      431     1321 |      179      117      5 |  2.140 % |
===============================================================================
restarts              : 3
conflicts             : 308            (104513 /sec)
decisions             : 380            (0.00 % random) (128945 /sec)
propagations          : 7141           (2423142 /sec)
conflict literals     : 1688           (22.78 % deleted)
Memory used           : 13.00 MB
CPU time              : 0.002947 s

SATISFIABLE
